NAME : U-A-n61-k9.1039079.tour
COMMENT : Cost = 0_1039079
COMMENT : Found by LKH [Keld Helsgaun] Sun May  7 01:01:57 2017
TYPE : TOUR
DIMENSION : 69
TOUR_SECTION
1
4
39
16
68
14
18
58
53
32
61
29
40
64
20
9
42
7
21
59
67
31
38
46
60
50
25
69
26
30
37
22
28
57
48
19
36
52
65
45
12
2
17
49
35
10
63
41
54
6
55
47
3
11
66
13
23
5
27
44
33
43
34
62
15
24
8
56
51
-1
EOF
